(declare-datatype Nat ((Z) (S (proj1-S Nat))))
(declare-datatype list ((nil) (cons (head Nat) (tail list))))
(define-fun-rec
  drop
  ((x Nat) (y list)) list
  (match x
    ((Z y)
     ((S z)
      (match y
        ((nil nil)
         ((cons x2 x3) (drop z x3))))))))
(define-fun
  barbar
  ((x Bool) (y Bool)) Bool (ite x true y))
(define-fun-rec
  ==
  ((x Nat) (y Nat)) Bool
  (match x
    ((Z
      (match y
        ((Z true)
         ((S z) false))))
     ((S x2)
      (match y
        ((Z false)
         ((S y2) (== x2 y2))))))))
(define-fun-rec
  elem
  ((x Nat) (y list)) Bool
  (match y
    ((nil false)
     ((cons z xs) (barbar (== x z) (elem x xs))))))
(assert
  (not
    (forall ((x Nat) (y Nat) (z list))
      (=> (elem x (drop y z)) (elem x z)))))
(check-sat)
